(set-logic QF_NRA)
(declare-fun x_0 () Real)
(declare-fun x_1 () Real)
(declare-fun x_2 () Real)
(declare-fun x_3 () Real)
(declare-fun x_4 () Real)
(declare-fun x_5 () Real)
(declare-fun x_6 () Real)
(declare-fun x_7 () Real)
(declare-fun x_8 () Real)
(declare-fun x_9 () Real)
(declare-fun x_10 () Real)
(declare-fun x_11 () Real)
(declare-fun x_12 () Real)
(declare-fun x_13 () Real)
(declare-fun x_14 () Real)
(declare-fun x_15 () Real)
(declare-fun x_16 () Real)
(declare-fun x_17 () Real)
(declare-fun x_18 () Real)
(declare-fun x_19 () Real)
(declare-fun x_20 () Real)
(declare-fun x_21 () Real)
(declare-fun x_22 () Real)
(declare-fun x_23 () Real)
(declare-fun x_24 () Real)
(declare-fun x_25 () Real)
(declare-fun x_26 () Real)
(declare-fun x_27 () Real)
(declare-fun x_28 () Real)
(declare-fun x_29 () Real)
(declare-fun x_30 () Real)
(declare-fun x_31 () Real)
(declare-fun x_32 () Real)
(declare-fun x_33 () Real)
(declare-fun x_34 () Real)
(declare-fun x_35 () Real)
(declare-fun x_36 () Real)
(declare-fun x_37 () Real)
(declare-fun x_38 () Real)
(declare-fun x_39 () Real)
(declare-fun x_40 () Real)
(declare-fun x_41 () Real)
(declare-fun x_42 () Real)
(declare-fun x_43 () Real)
(declare-fun x_44 () Real)
(declare-fun x_45 () Real)
(declare-fun x_46 () Real)
(declare-fun x_47 () Real)
(declare-fun x_48 () Real)
(declare-fun x_49 () Real)
(declare-fun x_50 () Real)
(declare-fun x_51 () Real)
(declare-fun x_52 () Real)
(declare-fun x_53 () Real)
(declare-fun x_54 () Real)
(declare-fun x_55 () Real)
(declare-fun x_56 () Real)
(declare-fun x_57 () Real)
(declare-fun x_58 () Real)
(declare-fun x_59 () Real)
(declare-fun x_60 () Real)
(declare-fun x_61 () Real)
(declare-fun x_62 () Real)
(declare-fun x_63 () Real)
(declare-fun x_64 () Real)
(declare-fun x_65 () Real)
(declare-fun x_66 () Real)
(declare-fun x_67 () Real)
(declare-fun x_68 () Real)
(declare-fun x_69 () Real)
(declare-fun x_70 () Real)
(declare-fun x_71 () Real)
(declare-fun x_72 () Real)
(declare-fun x_73 () Real)
(declare-fun x_74 () Real)
(declare-fun x_75 () Real)


(assert (= x_0 0))
(assert (= x_8 (+ x_2 x_1)))
(assert (= x_12 (+ x_5 x_4)))
(assert (= x_13 (/ x_3 x_12)))
(assert (not (<= x_8 x_13)))
(assert (= x_16 (^ x_1 0.5)))
(assert (= x_19 (/ x_3 x_2)))
(assert (not (<= x_16 x_19)))
(assert (= x_23 (* x_2 x_1)))
(assert (= x_24 (log x_23)))
(assert (= x_27 (+ x_4 x_5)))
(assert (= x_29 (+ x_3 x_27)))
(assert (= x_30 (log x_29)))
(assert (not (<= x_24 x_30)))
(assert (= x_33 (* 2 x_3)))
(assert (= x_35 (* 3 x_4)))
(assert (= x_36 (+ x_35 x_33)))
(assert (= x_38 (* 7 x_1)))
(assert (= x_39 (+ x_38 x_36)))
(assert (= x_42 (^ x_2 x_5)))
(assert (not (<= x_42 x_39)))
(assert (= x_46 (+ x_4 x_3)))
(assert (= x_49 (+ x_2 x_1)))
(assert (not (<= x_46 x_49)))
(assert (= x_54 (/ x_1 x_2)))
(assert (not (<= x_54 x_4)))
(assert (= x_59 (+ x_2 x_4)))
(assert (= x_61 (+ x_59 (* -1 x_3))))
(assert (not (<= x_1 x_61)))
(assert (= x_65 (* x_1 x_5)))
(assert (= x_66 (/ (log x_65) (log 10))))
(assert (= x_69 (* x_2 x_4)))
(assert (= x_71 (* x_3 x_69)))
(assert (= x_72 (^ x_71 0.5)))
(assert (<= x_72 x_66))


(check-sat)
(exit)
